Version identifier: 20.1.0.0 | 2020-11-10 | 9bedb6d68
Tried aggregator 3 times.
MIP Presolve eliminated 1868 rows and 1066 columns.
MIP Presolve modified 3461 coefficients.
Aggregator did 175 substitutions.
Reduced MIP has 1363 rows, 1164 columns, and 4299 nonzeros.
Reduced MIP has 304 binaries, 860 generals, 0 SOSs, and 0 indicators.
Presolve time = 0.02 sec. (8.84 ticks)
Found incumbent of value 64.000000 after 0.03 sec. (14.02 ticks)
Probing fixed 40 vars, tightened 387 bounds.
Probing time = 0.00 sec. (1.47 ticks)
Tried aggregator 2 times.
MIP Presolve eliminated 574 rows and 112 columns.
MIP Presolve modified 154 coefficients.
Aggregator did 42 substitutions.
Reduced MIP has 747 rows, 1010 columns, and 2405 nonzeros.
Reduced MIP has 378 binaries, 632 generals, 0 SOSs, and 0 indicators.
Presolve time = 0.01 sec. (3.17 ticks)
Probing time = 0.00 sec. (0.19 ticks)
Tried aggregator 1 time.
Detecting symmetries...
MIP Presolve modified 228 coefficients.
Reduced MIP has 747 rows, 1010 columns, and 2405 nonzeros.
Reduced MIP has 378 binaries, 632 generals, 0 SOSs, and 0 indicators.
Presolve time = 0.00 sec. (2.00 ticks)
Probing time = 0.00 sec. (0.18 ticks)
Clique table members: 1.
MIP emphasis: balance optimality and feasibility.
MIP search method: dynamic search.
Parallel mode: deterministic, using up to 24 threads.
Root relaxation solution time = 0.01 sec. (4.27 ticks)

        Nodes                                         Cuts/
   Node  Left     Objective  IInf  Best Integer    Best Bound    ItCnt     Gap

*     0+    0                           64.0000        0.0000           100.00%
      0     0        0.8000    61       64.0000        0.8000      291   98.75%
      0     0        3.6667    60       64.0000      Cuts: 76      500   94.27%
*     0+    0                           30.0000        3.6667            87.78%
      0     0        4.4000   127       30.0000      Cuts: 58      570   85.33%
      0     0        5.0000   212       30.0000      Cuts: 72      640   83.33%
      0     0        5.1667   203       30.0000     Cuts: 108      755   82.78%
      0     0        5.7083   195       30.0000     Cuts: 105      833   80.97%
      0     0        6.0000   211       30.0000      Cuts: 76      938   80.00%
      0     0        6.0000   246       30.0000      Cuts: 89     1018   80.00%
*     0+    0                           21.0000        6.0000            71.43%
      0     0        cutoff             21.0000       21.0000     1161    0.00%
Elapsed time = 0.31 sec. (104.99 ticks, tree = 0.01 MB, solutions = 3)

Implied bound cuts applied:  5
Flow cuts applied:  5
Mixed integer rounding cuts applied:  17
Zero-half cuts applied:  126
Lift and project cuts applied:  1
Gomory fractional cuts applied:  3

Root node processing (before b&c):
  Real time             =    0.31 sec. (105.11 ticks)
Parallel b&c, 24 threads:
  Real time             =    0.00 sec. (0.00 ticks)
  Sync time (average)   =    0.00 sec.
  Wait time (average)   =    0.00 sec.
                          ------------
Total (root+branch&cut) =    0.31 sec. (105.11 ticks)

Solution status = Optimal
Solution LB = 21
Solution UB = 21
Runtime = 0.313948 seconds
	Command being timed: "/home/min/git_repos/CS598MEBProject/CNT-ILP/build/cnt -s 2 ./output/k6_n40/simC_c1_k6_n40_u3_s2_del04.input-right.cnp"
	User time (seconds): 3.19
	System time (seconds): 0.07
	Percent of CPU this job got: 969%
	Elapsed (wall clock) time (h:mm:ss or m:ss): 0:00.33
	Average shared text size (kbytes): 0
	Average unshared data size (kbytes): 0
	Average stack size (kbytes): 0
	Average total size (kbytes): 0
	Maximum resident set size (kbytes): 88708
	Average resident set size (kbytes): 0
	Major (requiring I/O) page faults: 0
	Minor (reclaiming a frame) page faults: 19067
	Voluntary context switches: 4653
	Involuntary context switches: 387
	Swaps: 0
	File system inputs: 0
	File system outputs: 16
	Socket messages sent: 0
	Socket messages received: 0
	Signals delivered: 0
	Page size (bytes): 4096
	Exit status: 0
